
===== New CPLEX run =====
Instance: /home/yorig/tuner/mpils-tests/instances/miplib/easy/mas74.mps
Config: /scratch/yorig/mpils-results-grid-ticks-10000-divide/easy/16proc/seed-4/5_mas74_seed-4_20260429_043455/expansion/config_param_CPXPARAM_MIP_Limits_StrongCand_40_iter_6.prm
========================

Selected objective sense:  MINIMIZE
Selected objective  name:  obj
Selected RHS        name:  rhs
Selected bound      name:  bnd
Version identifier: 22.1.2.0 | 2024-11-26 | 0edbb82fd
CPXPARAM_Simplex_DGradient                       1
CPXPARAM_Preprocessing_Reduce                    1
CPXPARAM_Threads                                 8
CPXPARAM_Parallel                                1
CPXPARAM_MIP_Cuts_Cliques                        1
CPXPARAM_MIP_Cuts_Covers                         -1
CPXPARAM_MIP_OrderType                           2
CPXPARAM_MIP_Strategy_PresolveNode               -1
CPXPARAM_MIP_Cuts_FlowCovers                     -1
CPXPARAM_MIP_Cuts_Implied                        -1
CPXPARAM_MIP_Cuts_GUBCovers                      -1
CPXPARAM_MIP_Limits_StrongCand                   40
CPXPARAM_MIP_Limits_GomoryCand                   10
CPXPARAM_MIP_Cuts_Gomory                         2
CPXPARAM_MIP_Cuts_PathCut                        2
CPXPARAM_MIP_Cuts_MIRCut                         -1
CPXPARAM_MIP_Cuts_Disjunctive                    2
CPXPARAM_Emphasis_MIP                            3
CPXPARAM_MIP_Strategy_RINSHeur                   -1
CPXPARAM_DetTimeLimit                            10000
CPXPARAM_MIP_Limits_CutsFactor                   1
Generated priority order by increasing bound range.
Found incumbent of value 157344.610330 after 0.00 sec. (0.02 ticks)
Tried aggregator 1 time.
Reduced MIP has 13 rows, 151 columns, and 1706 nonzeros.
Reduced MIP has 150 binaries, 0 generals, 0 SOSs, and 0 indicators.
Presolve time = 0.00 sec. (0.32 ticks)
Probing time = 0.00 sec. (0.09 ticks)
Tried aggregator 1 time.
Reduced MIP has 13 rows, 151 columns, and 1706 nonzeros.
Reduced MIP has 150 binaries, 0 generals, 0 SOSs, and 0 indicators.
Presolve time = 0.00 sec. (0.32 ticks)
Probing time = 0.00 sec. (0.09 ticks)
MIP emphasis: best bound.
MIP search method: dynamic search.
Parallel mode: deterministic, using up to 8 threads.
Root relaxation solution time = 0.07 sec. (0.58 ticks)

        Nodes                                         Cuts/
   Node  Left     Objective  IInf  Best Integer    Best Bound    ItCnt     Gap

*     0+    0                       157344.6103        0.0000           100.00%
*     0+    0                        51840.4943        0.0000           100.00%
      0     0    10482.7953    12    51840.4943    10482.7953       36   79.78%
*     0+    0                        19197.4680    10482.7953            45.39%
*     0+    0                        16781.6019    10482.7953            37.53%
*     0+    0                        14372.8713    10482.7953            27.07%
      0     2    10482.7953    12    14372.8713    10513.0180       36   26.86%
Elapsed time = 0.50 sec. (5.54 ticks, tree = 0.02 MB, solutions = 5)
*     5+    1                        13279.7434    10526.8584            20.73%
*    90+   16                        12948.6158    10542.8535            18.58%
*   381+  168                        12872.0227    10640.0420            17.34%
*   865+  619                        12575.8170    10681.7785            15.06%
*  2207+ 1485                        12513.1775    10728.2808            14.26%

Performing restart 1

Repeating presolve.
Tried aggregator 1 time.
MIP Presolve eliminated 0 rows and 34 columns.
Reduced MIP has 13 rows, 117 columns, and 1279 nonzeros.
Reduced MIP has 116 binaries, 0 generals, 0 SOSs, and 0 indicators.
Presolve time = 0.00 sec. (0.28 ticks)
Tried aggregator 1 time.
Reduced MIP has 13 rows, 117 columns, and 1279 nonzeros.
Reduced MIP has 116 binaries, 0 generals, 0 SOSs, and 0 indicators.
Presolve time = 0.00 sec. (0.25 ticks)
Represolve time = 0.00 sec. (0.88 ticks)
*  2819+  153                        12464.1000    10745.8040            13.79%
*  3944+  834                        12451.8243    10753.4310            13.64%
*  3968+  834                        12438.8243    10753.4310            13.55%
*  6201+ 2460                        12345.4680    10820.9229            12.35%
*  9364+ 5645                        12052.1521    10890.3873             9.64%
* 10417+ 6926                        11985.1775    10905.8053             9.01%
  13722  9852    11078.3995    12    11985.1775    10962.6109    81213    8.53%
* 16456+12705                        11801.1857    10992.7843             6.85%

Performing restart 2

Repeating presolve.
Tried aggregator 1 time.
MIP Presolve eliminated 0 rows and 19 columns.
Reduced MIP has 13 rows, 98 columns, and 1040 nonzeros.
Reduced MIP has 97 binaries, 0 generals, 0 SOSs, and 0 indicators.
Presolve time = 0.00 sec. (0.22 ticks)
Tried aggregator 1 time.
Reduced MIP has 13 rows, 98 columns, and 1040 nonzeros.
Reduced MIP has 97 binaries, 0 generals, 0 SOSs, and 0 indicators.
Presolve time = 0.00 sec. (0.21 ticks)
Represolve time = 0.01 sec. (1.02 ticks)
  35962     3    10511.0935    12    11801.1857    11110.7089   237242    5.85%
  60350 21779    11168.8619    11    11801.1857    11110.7089   382685    5.85%
  88966 47359    11220.2353    12    11801.1857    11182.3832   558510    5.24%
 118874 72989    11391.4538    12    11801.1857    11240.7345   744123    4.75%
 150016 98741    11327.6638    12    11801.1857    11281.2919   931435    4.41%
 182091 124382    11356.7883    12    11801.1857    11314.9579  1124287    4.12%
 215147 150635    11372.1200     9    11801.1857    11342.7692  1323857    3.88%
 248772 174946    11404.6708    12    11801.1857    11366.6385  1515259    3.68%
 388837 272389    11447.3279     9    11801.1857    11440.6472  2335057    3.06%
Elapsed time = 20.53 sec. (3105.10 ticks, tree = 59.52 MB, solutions = 24)
 535518 360342    11559.9171    12    11801.1857    11495.4684  3167360    2.59%
 690020 439160    11552.0986    12    11801.1857    11541.2233  4021747    2.20%
 859943 509015    11661.6157    11    11801.1857    11582.1731  4944756    1.86%
 1036509 557040        cutoff          11801.1857    11617.7460  5849889    1.55%
 1220967 580983        cutoff          11801.1857    11649.8441  6747491    1.28%
 1409955 571382    11682.3133    11    11801.1857    11678.6007  7592867    1.04%
 1618363 512981        cutoff          11801.1857    11706.8229  8408349    0.80%

Clique cuts applied:  0
Flow path cuts applied:  0
Gomory fractional cuts applied:  0
Disjunctive cuts applied:  0
Cone linearizations applied:  0

Root node processing (before b&c):
  Real time             =    0.39 sec. (5.50 ticks)
Parallel b&c, 8 threads:
  Real time             =   71.69 sec. (9996.22 ticks)
  Sync time (average)   =   48.04 sec.
  Wait time (average)   =    1.47 sec.
                          ------------
Total (root+branch&cut) =   72.08 sec. (10001.72 ticks)
Gap: 0.74%
Upper bound: 11801.2
Lower bound: 11714
End of CPLEX run. Time: 72.1209 seconds
